words_hard_train/2971.qaiger
aag 91 16 0 1 75
2
4
8
12
16
20
28
30
34
38
42
52
60
114
152
160
183
6 3 5
10 6 9
14 10 13
18 14 17
22 19 20
24 18 21
26 23 25
32 29 31
36 32 35
40 36 39
44 41 42
46 40 43
48 45 47
50 27 49
54 25 52
56 24 53
58 55 57
62 46 61
64 47 60
66 63 65
68 59 67
70 51 69
72 26 48
74 37 38
76 75 41
78 15 16
80 79 19
82 76 80
84 73 83
86 33 34
88 87 37
90 11 12
92 91 15
94 89 93
96 77 81
98 95 97
100 88 92
102 28 30
104 103 33
106 7 8
108 107 11
110 104 108
112 101 111
116 115 28
118 2 4
120 119 7
122 114 29
124 120 123
126 117 125
128 105 109
130 127 129
132 112 131
134 98 133
136 84 135
138 70 137
140 58 66
142 139 141
144 46 114
146 144 61
148 142 147
150 62 115
154 150 153
156 151 152
158 155 157
162 56 161
164 57 160
166 163 165
168 159 167
170 148 169
172 143 146
174 168 172
176 171 175
178 158 173
180 178 166
182 176 181
i0 2 y2[0]
i1 2 y2[1]
i2 2 y2[2]
i3 2 y2[3]
i4 2 y2[4]
i5 2 y2[5]
i6 1 x2[1]
i7 1 x2[2]
i8 1 x2[3]
i9 1 x2[4]
i10 1 x2[5]
i11 2 y2[6]
i12 1 x2[6]
i13 1 x2[0]
i14 1 x2[7]
i15 2 y2[7]
o0 bv[0]
c
simplified
  >
    subtract
      1 x2
      1
    or
      1
      unary minus
        2 y2
