words_hard_train/2971.qaiger.qdimacs
p cnf 91 226
a 76 14 15 17 19 21 57 30 0
e 1 2 3 4 5 6 7 8 9 10 11 12 13 16 18 20 22 23 24 25 26 27 28 29 31 32 33 34 35 36 37 38 39 40 41 42 43 44 45 46 47 48 49 50 51 52 53 54 55 56 58 59 60 61 62 63 64 65 66 67 68 69 70 71 72 73 74 75 77 78 79 80 81 82 83 84 85 86 87 88 89 90 91 0
1 2 3 0
-1 -3 0
-2 -3 0
-3 4 5 0
3 -5 0
-4 -5 0
-5 6 7 0
5 -7 0
-6 -7 0
-7 8 9 0
7 -9 0
-8 -9 0
9 -10 11 0
-9 -11 0
10 -11 0
-9 10 12 0
9 -12 0
-10 -12 0
11 12 13 0
-11 -13 0
-12 -13 0
14 15 16 0
-14 -16 0
-15 -16 0
-16 17 18 0
16 -18 0
-17 -18 0
-18 19 20 0
18 -20 0
-19 -20 0
20 -21 22 0
-20 -22 0
21 -22 0
-20 21 23 0
20 -23 0
-21 -23 0
22 23 24 0
-22 -24 0
-23 -24 0
13 24 25 0
-13 -25 0
-24 -25 0
12 -26 27 0
-12 -27 0
26 -27 0
-12 26 28 0
12 -28 0
-26 -28 0
27 28 29 0
-27 -29 0
-28 -29 0
-23 30 31 0
23 -31 0
-30 -31 0
23 -30 32 0
-23 -32 0
30 -32 0
31 32 33 0
-31 -33 0
-32 -33 0
29 33 34 0
-29 -34 0
-33 -34 0
25 34 35 0
-25 -35 0
-34 -35 0
-13 -24 36 0
13 -36 0
24 -36 0
18 -19 37 0
-18 -37 0
19 -37 0
37 20 38 0
-37 -38 0
-20 -38 0
7 -8 39 0
-7 -39 0
8 -39 0
39 9 40 0
-39 -40 0
-9 -40 0
-38 -40 41 0
38 -41 0
40 -41 0
36 41 42 0
-36 -42 0
-41 -42 0
16 -17 43 0
-16 -43 0
17 -43 0
43 18 44 0
-43 -44 0
-18 -44 0
5 -6 45 0
-5 -45 0
6 -45 0
45 7 46 0
-45 -46 0
-7 -46 0
44 46 47 0
-44 -47 0
-46 -47 0
38 40 48 0
-38 -48 0
-40 -48 0
47 48 49 0
-47 -49 0
-48 -49 0
-44 -46 50 0
44 -50 0
46 -50 0
-14 -15 51 0
14 -51 0
15 -51 0
51 16 52 0
-51 -52 0
-16 -52 0
3 -4 53 0
-3 -53 0
4 -53 0
53 5 54 0
-53 -54 0
-5 -54 0
-52 -54 55 0
52 -55 0
54 -55 0
50 55 56 0
-50 -56 0
-55 -56 0
57 -14 58 0
-57 -58 0
14 -58 0
-1 -2 59 0
1 -59 0
2 -59 0
59 3 60 0
-59 -60 0
-3 -60 0
-57 14 61 0
57 -61 0
-14 -61 0
-60 61 62 0
60 -62 0
-61 -62 0
58 62 63 0
-58 -63 0
-62 -63 0
52 54 64 0
-52 -64 0
-54 -64 0
63 64 65 0
-63 -65 0
-64 -65 0
-56 65 66 0
56 -66 0
-65 -66 0
-49 66 67 0
49 -67 0
-66 -67 0
-42 67 68 0
42 -68 0
-67 -68 0
-35 68 69 0
35 -69 0
-68 -69 0
-29 -33 70 0
29 -70 0
33 -70 0
69 70 71 0
-69 -71 0
-70 -71 0
-23 -57 72 0
23 -72 0
57 -72 0
-72 30 73 0
72 -73 0
-30 -73 0
-71 73 74 0
71 -74 0
-73 -74 0
-31 57 75 0
31 -75 0
-57 -75 0
-75 76 77 0
75 -77 0
-76 -77 0
75 -76 78 0
-75 -78 0
76 -78 0
77 78 79 0
-77 -79 0
-78 -79 0
-28 80 81 0
28 -81 0
-80 -81 0
28 -80 82 0
-28 -82 0
80 -82 0
81 82 83 0
-81 -83 0
-82 -83 0
79 83 84 0
-79 -84 0
-83 -84 0
-74 84 85 0
74 -85 0
-84 -85 0
71 -73 86 0
-71 -86 0
73 -86 0
-84 -86 87 0
84 -87 0
86 -87 0
85 87 88 0
-85 -88 0
-87 -88 0
-79 86 89 0
79 -89 0
-86 -89 0
-89 -83 90 0
89 -90 0
83 -90 0
-88 90 91 0
88 -91 0
-90 -91 0
-91 0
